p cnf 544 47
5 8 9 15 16 33 34 39 40 41 42 43 44 54 56 89 90 91 102 103 104 105 106 111 112 129 130 135 136 140 149 152 153 154 159 160 178 183 185 188 197 200 201 210 215 216 225 228 237 250 255 256 261 264 269 272 281 282 287 294 296 375 378 407 410 459 465 466 503 506 535 538 0
5 7 11 12 13 14 33 34 37 38 45 46 47 49 51 89 90 91 97 98 100 107 108 109 110 129 130 133 134 138 139 149 151 156 157 158 178 182 186 187 197 199 201 203 210 213 225 227 237 239 250 253 254 261 263 269 271 281 282 285 295 296 375 377 407 409 459 463 464 503 505 535 537 0
5 8 9 11 15 16 33 34 39 40 41 42 43 44 45 46 54 56 89 90 91 102 103 104 105 106 107 111 112 129 130 135 136 140 149 152 153 154 155 159 160 178 183 185 186 188 197 200 201 210 215 216 225 228 237 250 255 256 261 264 269 272 281 282 287 294 296 375 378 407 410 459 465 466 503 506 535 538 0
5 7 9 11 12 13 14 33 34 37 38 41 42 45 46 47 49 51 89 90 91 97 98 100 105 107 108 109 110 129 130 133 134 138 139 149 151 153 156 157 158 178 182 185 186 187 197 199 201 203 210 213 225 227 237 239 250 253 254 261 263 269 271 281 282 285 295 296 375 377 407 409 459 463 464 503 505 535 537 0
5 7 11 12 13 14 33 34 37 38 43 44 45 46 47 49 51 89 90 91 97 98 100 106 107 108 109 110 129 130 133 134 138 139 149 151 154 156 157 158 178 182 185 186 187 197 199 201 203 210 213 225 227 237 239 250 253 254 261 263 269 271 281 282 285 295 296 375 377 407 409 459 463 464 503 505 535 537 0
5 8 9 12 15 16 33 34 39 40 41 42 43 44 47 54 56 89 90 91 102 103 104 105 106 108 111 112 129 130 135 136 140 149 152 153 154 155 156 159 160 178 183 185 186 188 197 200 201 210 215 216 225 228 237 250 255 256 261 264 269 272 281 282 287 294 296 375 378 407 410 459 465 466 503 506 535 538 0
5 8 9 11 15 16 33 34 39 40 41 42 43 44 45 46 54 56 89 90 91 102 103 104 105 106 107 111 112 129 130 135 136 138 140 149 152 153 154 155 156 159 160 178 183 185 186 188 197 200 201 210 215 216 225 228 237 250 255 256 261 264 269 272 281 282 287 294 296 375 378 407 410 459 465 466 503 506 535 538 0
5 8 9 12 15 16 33 34 39 40 41 42 43 44 47 54 56 89 90 91 102 103 104 105 106 108 111 112 129 130 135 136 138 140 149 152 153 154 155 156 159 160 178 183 185 186 188 197 200 201 210 215 216 225 228 237 250 255 256 261 264 269 272 281 282 287 294 296 375 378 407 410 459 465 466 503 506 535 538 0
5 7 9 11 12 13 14 33 34 37 38 41 42 45 46 47 49 51 89 90 91 97 98 100 105 107 108 109 110 129 130 133 134 137 138 139 149 151 153 154 156 157 158 178 182 185 186 187 197 199 201 203 210 213 225 227 237 239 250 253 254 261 263 269 271 281 282 285 295 296 375 377 407 409 459 463 464 503 505 535 537 0
5 7 11 12 13 14 33 34 37 38 43 44 45 46 47 49 51 89 90 91 97 98 100 106 107 108 109 110 129 130 133 134 137 138 139 149 151 153 154 156 157 158 178 182 185 186 187 197 199 201 203 210 213 225 227 237 239 250 253 254 261 263 269 271 281 282 285 295 296 375 377 407 409 459 463 464 503 505 535 537 0
5 8 9 11 15 16 33 34 39 40 41 42 43 44 45 46 48 54 56 89 90 91 102 103 104 105 106 107 108 111 112 129 130 135 136 138 140 149 152 153 154 155 156 159 160 178 183 185 186 188 197 200 201 210 215 216 225 228 237 250 255 256 261 264 269 272 281 282 287 294 296 375 378 407 410 459 465 466 503 506 535 538 0
5 8 9 11 12 15 16 33 34 39 40 41 42 43 44 45 47 54 56 89 90 91 102 103 104 105 106 107 108 111 112 129 130 135 136 138 140 149 152 153 154 155 156 159 160 178 183 185 186 188 197 200 201 210 215 216 225 228 237 250 255 256 261 264 269 272 281 282 287 294 296 375 378 407 410 459 465 466 503 506 535 538 0
5 8 9 11 12 15 16 33 34 39 40 41 42 43 44 46 47 54 56 89 90 91 102 103 104 105 106 107 108 111 112 129 130 135 136 138 140 149 152 153 154 155 156 159 160 178 183 185 186 188 197 200 201 210 215 216 225 228 237 250 255 256 261 264 269 272 281 282 287 294 296 375 378 407 410 459 465 466 503 506 535 538 0
5 7 9 11 12 13 14 33 34 37 38 41 42 43 45 46 47 49 51 89 90 91 97 98 100 105 106 107 108 109 110 129 130 133 134 137 138 139 149 151 153 154 156 157 158 178 182 185 186 187 197 199 201 203 210 213 225 227 237 239 250 253 254 261 263 269 271 281 282 285 295 296 375 377 407 409 459 463 464 503 505 535 537 0
5 7 9 11 12 13 14 33 34 37 38 41 42 44 45 46 47 49 51 89 90 91 97 98 100 105 106 107 108 109 110 129 130 133 134 137 138 139 149 151 153 154 156 157 158 178 182 185 186 187 197 199 201 203 210 213 225 227 237 239 250 253 254 261 263 269 271 281 282 285 295 296 375 377 407 409 459 463 464 503 505 535 537 0
5 7 9 11 12 13 14 33 34 37 38 41 43 44 45 46 47 49 51 89 90 91 97 98 100 105 106 107 108 109 110 129 130 133 134 137 138 139 149 151 153 154 156 157 158 178 182 185 186 187 197 199 201 203 210 213 225 227 237 239 250 253 254 261 263 269 271 281 282 285 295 296 375 377 407 409 459 463 464 503 505 535 537 0
5 7 9 11 12 13 14 33 34 37 38 42 43 44 45 46 47 49 51 89 90 91 97 98 100 105 106 107 108 109 110 129 130 133 134 137 138 139 149 151 153 154 156 157 158 178 182 185 186 187 197 199 201 203 210 213 225 227 237 239 250 253 254 261 263 269 271 281 282 285 295 296 375 377 407 409 459 463 464 503 505 535 537 0
5 8 9 11 15 16 33 34 39 40 41 42 43 44 45 46 47 48 54 56 89 90 91 102 103 104 105 106 107 108 111 112 129 130 135 136 138 140 149 152 153 154 155 156 159 160 178 183 185 186 188 197 200 201 210 215 216 225 228 237 250 255 256 261 264 269 272 281 282 287 294 296 375 378 407 410 459 465 466 503 506 535 538 0
5 8 9 12 15 16 33 34 39 40 41 42 43 44 45 46 47 54 56 89 90 91 102 103 104 105 106 107 108 111 112 129 130 135 136 138 140 149 152 153 154 155 156 159 160 178 183 185 186 188 197 200 201 210 215 216 225 228 237 250 255 256 261 264 269 272 281 282 287 294 296 375 378 407 410 459 465 466 503 506 535 538 0
5 7 11 12 13 14 33 34 37 38 41 42 43 44 45 46 47 49 51 89 90 91 97 98 100 105 106 107 108 109 110 129 130 133 134 137 138 139 149 151 153 154 156 157 158 178 182 185 186 187 197 199 201 203 210 213 225 227 237 239 250 253 254 261 263 269 271 281 282 285 295 296 375 377 407 409 459 463 464 503 505 535 537 0
5 6 7 8 9 11 12 13 14 15 16 33 34 35 36 37 38 39 40 41 42 43 44 45 46 47 49 51 54 56 89 90 91 94 95 97 98 100 102 103 104 105 106 107 108 109 110 111 112 129 130 131 132 133 134 135 136 138 139 140 149 150 151 152 153 154 156 157 158 159 160 178 179 180 182 183 185 186 187 188 197 198 199 200 201 204 210 211 212 213 214 215 225 226 227 228 237 238 239 240 250 251 253 256 261 262 263 264 269 270 271 272 281 282 284 285 286 287 288 293 294 295 296 323 324 325 329 330 343 346 351 359 360 361 362 372 391 392 393 394 404 427 429 430 431 434 454 487 488 489 490 500 519 520 521 522 532 0
311 348 359 376 391 408 427 461 487 504 519 536 0
1 2 3 4 17 18 19 20 21 22 24 25 26 27 28 29 30 32 57 59 61 62 63 64 65 66 68 69 70 71 72 73 74 75 77 78 80 82 83 85 86 88 113 114 115 116 117 118 119 120 121 122 123 124 125 126 127 128 141 143 145 146 147 148 161 162 163 164 166 167 168 170 172 173 174 176 189 190 191 192 193 194 195 196 206 207 217 218 219 222 223 224 229 230 231 232 234 235 236 241 242 243 244 245 246 247 257 258 259 260 265 266 268 273 275 277 278 279 280 289 290 291 292 303 306 337 338 339 340 345 348 359 391 427 487 519 0
8 11 12 15 16 39 40 45 46 47 54 56 102 103 104 107 108 111 112 135 136 138 140 152 156 159 160 183 186 188 200 204 215 228 240 256 264 272 287 288 294 348 359 391 427 487 519 0
5 9 11 12 33 34 41 42 43 44 45 46 47 89 90 91 105 106 107 108 129 130 138 149 153 154 156 178 185 186 197 201 210 225 237 250 261 269 281 282 296 348 359 391 427 487 519 0
5 9 11 12 33 34 41 42 43 44 45 46 47 89 90 91 105 106 107 108 129 130 138 149 153 154 156 178 185 186 197 201 210 225 237 250 261 269 281 282 296 348 361 393 431 489 521 0
7 9 13 14 37 38 41 42 43 44 49 51 97 98 100 105 106 109 110 133 134 139 151 153 154 157 158 182 185 187 199 213 214 227 239 253 263 271 285 286 295 349 365 397 439 493 525 0
3 17 18 21 22 29 30 57 59 65 66 68 82 83 113 114 117 118 125 126 141 143 147 161 162 166 173 174 189 191 195 207 222 231 235 245 246 259 277 278 291 361 393 431 489 521 0
332 352 361 375 393 407 431 459 489 503 521 535 0
371 372 376 403 404 408 451 454 461 499 500 504 531 532 536 0
331 352 354 376 384 408 461 477 478 504 512 536 544 0
335 354 359 384 391 427 477 478 487 512 519 544 0
6 13 14 15 16 35 36 49 51 54 56 94 95 109 110 111 112 131 132 139 140 150 157 158 159 160 179 180 187 188 198 211 212 226 238 251 262 270 284 293 311 348 361 393 431 489 521 0
299 300 304 307 337 338 339 340 345 349 359 361 365 391 393 397 427 431 439 487 489 493 519 521 525 0
299 300 304 307 337 338 339 340 345 348 359 361 391 393 427 431 487 489 519 521 0
2 21 22 24 27 28 65 66 68 69 70 71 72 77 78 80 117 118 119 120 123 124 143 146 166 167 168 172 191 192 194 206 219 230 234 243 244 258 266 275 290 331 352 376 408 461 504 536 0
3 17 18 21 22 29 30 57 59 65 66 68 82 83 113 114 117 118 125 126 141 143 147 161 162 166 173 174 189 191 195 207 222 231 235 245 246 259 277 278 291 351 371 403 451 499 531 0
5 9 11 12 33 34 41 42 43 44 45 46 47 89 90 91 105 106 107 108 129 130 138 149 153 154 156 178 185 186 197 201 210 225 237 250 261 269 281 282 296 371 403 451 499 531 0
313 349 365 375 397 407 439 459 493 503 525 535 0
311 348 361 384 393 431 477 478 489 512 521 544 0
332 352 361 376 393 408 431 461 489 504 521 536 0
4 19 20 24 32 61 62 63 64 69 70 71 72 85 86 88 115 116 119 120 127 128 148 163 164 167 168 176 190 192 196 223 224 232 236 247 260 268 279 280 292 352 376 408 461 504 536 0
336 354 361 384 393 431 477 478 489 512 521 544 0
6 13 14 15 16 35 36 49 51 54 56 94 95 109 110 111 112 131 132 139 140 150 157 158 159 160 179 180 187 188 198 211 212 226 238 251 262 270 284 293 311 348 359 391 427 487 519 0
3 17 18 21 22 29 30 57 59 65 66 68 82 83 113 114 117 118 125 126 141 143 147 161 162 166 173 174 189 191 195 207 222 231 235 245 246 259 277 278 291 365 397 439 493 525 0
5 9 11 12 33 34 41 42 43 44 45 46 47 89 90 91 105 106 107 108 129 130 138 149 153 154 156 178 185 186 197 201 210 225 237 250 261 269 281 282 296 375 407 459 503 535 0
4 19 20 24 32 61 62 63 64 69 70 71 72 85 86 88 115 116 119 120 127 128 148 163 164 167 168 176 190 192 196 223 224 232 236 247 260 268 279 280 292 354 384 477 478 512 544 0
